Version identifier: 22.1.0.0 | 2022-03-09 | 1a383f8ce
CPXPARAM_Threads                                 1
CPXPARAM_MIP_Strategy_VariableSelect             3
CPXPARAM_TimeLimit                               599.99780057800001
Tried aggregator 1 time.
MIP Presolve eliminated 13 rows and 0 columns.
MIP Presolve modified 1 coefficients.
Reduced MIP has 630 rows, 2575 columns, and 28445 nonzeros.
Reduced MIP has 2575 binaries, 0 generals, 0 SOSs, and 0 indicators.
Presolve time = 0.02 sec. (14.18 ticks)
Found incumbent of value 0.000000 after 0.05 sec. (40.09 ticks)

Root node processing (before b&c):
  Real time             =    0.05 sec. (40.19 ticks)
Sequential b&c:
  Real time             =    0.00 sec. (0.00 ticks)
                          ------------
Total (root+branch&cut) =    0.05 sec. (40.19 ticks)
Version identifier: 22.1.0.0 | 2022-03-09 | 1a383f8ce
CPXPARAM_Threads                                 1
CPXPARAM_MIP_Strategy_VariableSelect             3
CPXPARAM_TimeLimit                               599.92902101499999
Tried aggregator 1 time.
MIP Presolve eliminated 13 rows and 0 columns.
MIP Presolve modified 1 coefficients.
Reduced MIP has 924 rows, 3800 columns, and 42312 nonzeros.
Reduced MIP has 3800 binaries, 0 generals, 0 SOSs, and 0 indicators.
Presolve time = 0.02 sec. (20.75 ticks)
Probing time = 0.00 sec. (4.86 ticks)
Tried aggregator 1 time.
Detecting symmetries...
Reduced MIP has 924 rows, 3800 columns, and 42312 nonzeros.
Reduced MIP has 3800 binaries, 0 generals, 0 SOSs, and 0 indicators.
Presolve time = 0.03 sec. (25.18 ticks)
Probing time = 0.00 sec. (4.86 ticks)
Clique table members: 607.
MIP emphasis: balance optimality and feasibility.
MIP search method: dynamic search.
Parallel mode: none, using 1 thread.
Root relaxation solution time = 0.22 sec. (236.82 ticks)

        Nodes                                         Cuts/
   Node  Left     Objective  IInf  Best Integer    Best Bound    ItCnt     Gap

      0     0        0.0000   635                      0.0000     1757         
*     0+    0                            0.0000        0.0000             0.00%
      0     0        cutoff              0.0000        0.0000     1757    0.00%
Elapsed time = 0.77 sec. (729.33 ticks, tree = 0.01 MB, solutions = 1)

Root node processing (before b&c):
  Real time             =    0.77 sec. (729.44 ticks)
Sequential b&c:
  Real time             =    0.00 sec. (0.00 ticks)
                          ------------
Total (root+branch&cut) =    0.77 sec. (729.44 ticks)
Version identifier: 22.1.0.0 | 2022-03-09 | 1a383f8ce
CPXPARAM_Threads                                 1
CPXPARAM_MIP_Strategy_VariableSelect             3
CPXPARAM_TimeLimit                               599.13494237400005
Tried aggregator 1 time.
MIP Presolve eliminated 13 rows and 0 columns.
MIP Presolve modified 1 coefficients.
Reduced MIP has 1068 rows, 4400 columns, and 49104 nonzeros.
Reduced MIP has 4400 binaries, 0 generals, 0 SOSs, and 0 indicators.
Presolve time = 0.03 sec. (23.96 ticks)
Probing time = 0.00 sec. (5.13 ticks)
Tried aggregator 1 time.
Detecting symmetries...
Reduced MIP has 1068 rows, 4400 columns, and 49104 nonzeros.
Reduced MIP has 4400 binaries, 0 generals, 0 SOSs, and 0 indicators.
Presolve time = 0.03 sec. (29.18 ticks)
Probing time = 0.01 sec. (5.13 ticks)
Clique table members: 703.
MIP emphasis: balance optimality and feasibility.
MIP search method: dynamic search.
Parallel mode: none, using 1 thread.
Root relaxation solution time = 0.32 sec. (346.71 ticks)

        Nodes                                         Cuts/
   Node  Left     Objective  IInf  Best Integer    Best Bound    ItCnt     Gap

      0     0        0.0000   740                      0.0000     2169         
*     0+    0                            0.0000        0.0000             0.00%
      0     0        cutoff              0.0000        0.0000     2169    0.00%
Elapsed time = 1.94 sec. (2168.62 ticks, tree = 0.01 MB, solutions = 1)

Root node processing (before b&c):
  Real time             =    1.94 sec. (2168.76 ticks)
Sequential b&c:
  Real time             =    0.00 sec. (0.00 ticks)
                          ------------
Total (root+branch&cut) =    1.94 sec. (2168.76 ticks)
Version identifier: 22.1.0.0 | 2022-03-09 | 1a383f8ce
CPXPARAM_Threads                                 1
CPXPARAM_MIP_Strategy_VariableSelect             3
CPXPARAM_TimeLimit                               597.16632055399998
Tried aggregator 1 time.
MIP Presolve eliminated 13 rows and 0 columns.
MIP Presolve modified 1 coefficients.
Reduced MIP has 1140 rows, 4700 columns, and 52500 nonzeros.
Reduced MIP has 4700 binaries, 0 generals, 0 SOSs, and 0 indicators.
Presolve time = 0.03 sec. (25.57 ticks)
Probing time = 0.00 sec. (5.30 ticks)
Tried aggregator 1 time.
Detecting symmetries...
Reduced MIP has 1140 rows, 4700 columns, and 52500 nonzeros.
Reduced MIP has 4700 binaries, 0 generals, 0 SOSs, and 0 indicators.
Presolve time = 0.03 sec. (31.17 ticks)
Probing time = 0.01 sec. (5.30 ticks)
Clique table members: 751.
MIP emphasis: balance optimality and feasibility.
MIP search method: dynamic search.
Parallel mode: none, using 1 thread.
Root relaxation solution time = 0.40 sec. (446.33 ticks)

        Nodes                                         Cuts/
   Node  Left     Objective  IInf  Best Integer    Best Bound    ItCnt     Gap

      0     0        0.0000   843                      0.0000     2481         
*     0+    0                            0.0000        0.0000             0.00%
      0     0        cutoff              0.0000        0.0000     2481    0.00%
Elapsed time = 2.33 sec. (2579.35 ticks, tree = 0.01 MB, solutions = 1)

Root node processing (before b&c):
  Real time             =    2.33 sec. (2579.49 ticks)
Sequential b&c:
  Real time             =    0.00 sec. (0.00 ticks)
                          ------------
Total (root+branch&cut) =    2.33 sec. (2579.49 ticks)
Version identifier: 22.1.0.0 | 2022-03-09 | 1a383f8ce
CPXPARAM_Threads                                 1
CPXPARAM_MIP_Strategy_VariableSelect             3
CPXPARAM_TimeLimit                               594.80993266899998
Tried aggregator 1 time.
MIP Presolve eliminated 13 rows and 0 columns.
MIP Presolve modified 1 coefficients.
Reduced MIP has 1176 rows, 4850 columns, and 54198 nonzeros.
Reduced MIP has 4850 binaries, 0 generals, 0 SOSs, and 0 indicators.
Presolve time = 0.03 sec. (26.38 ticks)
Probing time = 0.00 sec. (5.41 ticks)
Tried aggregator 1 time.
Detecting symmetries...
Reduced MIP has 1176 rows, 4850 columns, and 54198 nonzeros.
Reduced MIP has 4850 binaries, 0 generals, 0 SOSs, and 0 indicators.
Presolve time = 0.04 sec. (32.17 ticks)
Probing time = 0.01 sec. (5.41 ticks)
Clique table members: 775.
MIP emphasis: balance optimality and feasibility.
MIP search method: dynamic search.
Parallel mode: none, using 1 thread.
Root relaxation solution time = 0.45 sec. (506.26 ticks)

        Nodes                                         Cuts/
   Node  Left     Objective  IInf  Best Integer    Best Bound    ItCnt     Gap

      0     0        0.0000   837                      0.0000     2643         
*     0+    0                            0.0000        0.0000             0.00%
      0     0        cutoff              0.0000        0.0000     2643    0.00%
Elapsed time = 3.18 sec. (3667.20 ticks, tree = 0.01 MB, solutions = 1)

Root node processing (before b&c):
  Real time             =    3.18 sec. (3667.35 ticks)
Sequential b&c:
  Real time             =    0.00 sec. (0.00 ticks)
                          ------------
Total (root+branch&cut) =    3.18 sec. (3667.35 ticks)
Version identifier: 22.1.0.0 | 2022-03-09 | 1a383f8ce
CPXPARAM_Threads                                 1
CPXPARAM_MIP_Strategy_VariableSelect             3
CPXPARAM_TimeLimit                               591.60216222600002
Tried aggregator 1 time.
MIP Presolve eliminated 13 rows and 0 columns.
MIP Presolve modified 1 coefficients.
Reduced MIP has 1194 rows, 4925 columns, and 55047 nonzeros.
Reduced MIP has 4925 binaries, 0 generals, 0 SOSs, and 0 indicators.
Presolve time = 0.03 sec. (26.77 ticks)
Probing time = 0.00 sec. (5.41 ticks)
Tried aggregator 1 time.
Detecting symmetries...
Reduced MIP has 1194 rows, 4925 columns, and 55047 nonzeros.
Reduced MIP has 4925 binaries, 0 generals, 0 SOSs, and 0 indicators.
Presolve time = 0.04 sec. (32.66 ticks)
Probing time = 0.01 sec. (5.41 ticks)
Clique table members: 787.
MIP emphasis: balance optimality and feasibility.
MIP search method: dynamic search.
Parallel mode: none, using 1 thread.
Root relaxation solution time = 0.55 sec. (616.92 ticks)

        Nodes                                         Cuts/
   Node  Left     Objective  IInf  Best Integer    Best Bound    ItCnt     Gap

      0     0        0.0000   874                      0.0000     3028         
      0     2        0.0000    48                      0.0000     3028         
Elapsed time = 7.52 sec. (8445.05 ticks, tree = 0.01 MB, solutions = 0)
      1     3        0.0000   437                      0.0000     8013         
      2     4        0.0000   241                      0.0000    10002         
      3     5        0.0000   259                      0.0000    12406         
      4     6        0.0000   285                      0.0000    12619         
      5     7        0.0000   230                      0.0000    15221         
      6     8        0.0000   332                      0.0000    18357         
      7     9        0.0000   232                      0.0000    18904         
      8    10        0.0000   206                      0.0000    20523         
      9    11        0.0000   295                      0.0000    20660         
     12    14        0.0000   231                      0.0000    22967         
Elapsed time = 13.69 sec. (15316.57 ticks, tree = 0.11 MB, solutions = 0)
     15    17        0.0000   305                      0.0000    27056         
     19    21        0.0000   252                      0.0000    29499         
     21    23        0.0000   418                      0.0000    32299         
     23    25        0.0000   294                      0.0000    35528         
     27    29        0.0000   248                      0.0000    40644         
     32    34        0.0000   227                      0.0000    42862         
     34    36        0.0000   311                      0.0000    46595         
     39    41        0.0000   418                      0.0000    50006         
     42    44        0.0000   218                      0.0000    54215         
     48    50        0.0000   226                      0.0000    62881         
Elapsed time = 24.24 sec. (26584.27 ticks, tree = 0.50 MB, solutions = 0)
     52    54        0.0000   245                      0.0000    70782         
     58    60        0.0000   223                      0.0000    81038         
     64    66        0.0000   204                      0.0000    89560         
     70    72        0.0000   288                      0.0000   100539         
     77    79        0.0000   193                      0.0000   109734         
     80    81        0.0000   215                      0.0000   116704         
     86    87        0.0000   216                      0.0000   127651         
     93    94        0.0000   250                      0.0000   135978         
    100   101        0.0000   229                      0.0000   141570         
    106   106        0.0000   263                      0.0000   151570         
Elapsed time = 35.29 sec. (37056.69 ticks, tree = 1.12 MB, solutions = 0)
    112   112        0.0000   318                      0.0000   164091         
    118   116        0.0000   231                      0.0000   182697         
    120   118        0.0000   226                      0.0000   184094         
    126   124        0.0000   126                      0.0000   187993         
    128   126        0.0000   312                      0.0000   195533         
    131   127    infeasible                            0.0000   202703         
    138   132        0.0000   167                      0.0000   209891         
    148   136        0.0000   122                      0.0000   218988         
    156   140    infeasible                            0.0000   230368         
    165   141    infeasible                            0.0000   243773         
Elapsed time = 46.57 sec. (47672.59 ticks, tree = 1.52 MB, solutions = 0)
    176   142    infeasible                            0.0000   257316         
    189   139    infeasible                            0.0000   274509         
    199   141        0.0000   127                      0.0000   287816         
    212   142        0.0000   106                      0.0000   300862         
    225   140        0.0000   117                      0.0000   315043         
    239   141        0.0000   128                      0.0000   324606         
    251   143        0.0000   100                      0.0000   335770         
    265   143        0.0000   127                      0.0000   347731         
    275   147        0.0000    80                      0.0000   358361         
    289   143        0.0000   119                      0.0000   376816         
Elapsed time = 58.13 sec. (57764.90 ticks, tree = 1.54 MB, solutions = 0)
    299   143        0.0000    84                      0.0000   391409         
    307   145    infeasible                            0.0000   409137         
    314   148    infeasible                            0.0000   423413         
    324   146        0.0000   112                      0.0000   442312         
    333   147        0.0000   108                      0.0000   457338         
    347   143    infeasible                            0.0000   475864         
    358   144        0.0000   109                      0.0000   490905         
    369   143        0.0000   120                      0.0000   506238         
    380   146    infeasible                            0.0000   518479         
    395   143        0.0000   121                      0.0000   534475         
Elapsed time = 70.08 sec. (67874.75 ticks, tree = 1.54 MB, solutions = 0)
    408   142        0.0000   121                      0.0000   552098         
    417   143        0.0000   106                      0.0000   569539         
    426   142        0.0000   124                      0.0000   585702         
    438   140        0.0000   119                      0.0000   603936         
    448   142        0.0000   126                      0.0000   614411         
    458   140    infeasible                            0.0000   633030         
    469   141        0.0000   126                      0.0000   646646         
    476   142        0.0000   122                      0.0000   661234         
    488   140        0.0000   126                      0.0000   678588         
    500   142        0.0000   119                      0.0000   689250         
Elapsed time = 82.04 sec. (78138.64 ticks, tree = 1.52 MB, solutions = 0)
    512   142        0.0000   124                      0.0000   704026         
    521   144    infeasible                            0.0000   718903         
    531   145        0.0000   128                      0.0000   731854         
    544   142        0.0000   126                      0.0000   746130         
    554   142        0.0000   138                      0.0000   761477         
    567   141        0.0000   141                      0.0000   775718         
    575   145        0.0000   120                      0.0000   788728         
    587   141        0.0000   137                      0.0000   807848         
    598   140        0.0000   129                      0.0000   824615         
    609   141        0.0000   129                      0.0000   838728         
Elapsed time = 94.03 sec. (88491.70 ticks, tree = 1.51 MB, solutions = 0)
    619   141        0.0000   137                      0.0000   854334         
    632   142    infeasible                            0.0000   863239         
    646   140        0.0000   110                      0.0000   876282         
    660   141        0.0000   100                      0.0000   886704         
    674   140        0.0000    91                      0.0000   900729         
    685   140        0.0000    97                      0.0000   912522         
    699   138        0.0000   141                      0.0000   924462         
    711   138        0.0000   146                      0.0000   941023         
    723   140        0.0000   109                      0.0000   955141         
    735   138        0.0000   140                      0.0000   971135         
Elapsed time = 105.75 sec. (98728.56 ticks, tree = 1.48 MB, solutions = 0)
    744   139        0.0000   133                      0.0000   985080         
    756   137        0.0000   134                      0.0000  1000333         
    765   136        0.0000   152                      0.0000  1018039         
    774   139        0.0000   116                      0.0000  1033674         
    785   138    infeasible                            0.0000  1048905         
    796   141        0.0000   112                      0.0000  1061859         
    810   139        0.0000   118                      0.0000  1078272         
    816   143    infeasible                            0.0000  1092105         
    826   145        0.0000    87                      0.0000  1103894         
    870   143        0.0000   120                      0.0000  1163906         
Elapsed time = 121.04 sec. (111777.53 ticks, tree = 1.54 MB, solutions = 0)
    920   141        0.0000   112                      0.0000  1213181         
    972   141        0.0000    86                      0.0000  1262990         
   1018   143        0.0000    96                      0.0000  1315086         
   1061   142        0.0000   137                      0.0000  1375623         
   1101   146        0.0000   105                      0.0000  1422733         
   1146   143    infeasible                            0.0000  1487378         
   1182   149        0.0000    80                      0.0000  1546892         
   1221   147        0.0000    92                      0.0000  1615046         
   1263   145        0.0000   123                      0.0000  1678935         
   1297   147        0.0000   136                      0.0000  1742252         
Elapsed time = 165.97 sec. (150580.41 ticks, tree = 1.57 MB, solutions = 0)
   1338   150    infeasible                            0.0000  1799413         
   1379   151        0.0000   106                      0.0000  1859744         
   1414   150        0.0000    89                      0.0000  1922542         
   1452   154        0.0000   112                      0.0000  1982618         
   1500   148        0.0000   102                      0.0000  2047250         
   1539   151        0.0000   123                      0.0000  2110258         
   1575   153        0.0000   100                      0.0000  2170592         
   1615   151        0.0000   147                      0.0000  2232487         
   1660   156        0.0000   103                      0.0000  2287630         
   1703   155        0.0000   129                      0.0000  2348478         
Elapsed time = 211.00 sec. (189288.49 ticks, tree = 1.67 MB, solutions = 0)
   1739   155        0.0000   103                      0.0000  2410138         
   1777   157        0.0000   115                      0.0000  2469467         
   1830   158    infeasible                            0.0000  2525263         
   1873   159        0.0000   104                      0.0000  2586956         
   1915   161    infeasible                            0.0000  2647411         
   1962   156    infeasible                            0.0000  2706847         
   2002   152    infeasible                            0.0000  2767201         
   2048   156        0.0000   126                      0.0000  2819133         
   2085   157    infeasible                            0.0000  2880308         
   2123   161        0.0000   115                      0.0000  2934783         
Elapsed time = 256.45 sec. (227863.72 ticks, tree = 1.74 MB, solutions = 0)
   2164   158        0.0000   129                      0.0000  3000173         
   2210   156    infeasible                            0.0000  3060525         
   2250   158    infeasible                            0.0000  3111277         
   2298   158        0.0000    70                      0.0000  3168225         
   2344   158        0.0000   116                      0.0000  3219308         
   2393   157        0.0000   130                      0.0000  3276423         
   2439   157        0.0000   101                      0.0000  3333355         
   2486   158        0.0000   106                      0.0000  3383164         
   2533   154        0.0000   115                      0.0000  3444300         
   2577   156    infeasible                            0.0000  3498887         
Elapsed time = 301.42 sec. (266599.45 ticks, tree = 1.66 MB, solutions = 0)
   2617   156    infeasible                            0.0000  3556983         
   2660   155        0.0000   125                      0.0000  3611878         
   2694   161        0.0000   118                      0.0000  3668929         
   2735   162    infeasible                            0.0000  3727808         
   2775   170        0.0000    93                      0.0000  3778122         
   2819   170        0.0000   103                      0.0000  3827938         
   2863   166        0.0000   119                      0.0000  3890171         
   2903   174        0.0000   115                      0.0000  3940922         
   2951   178        0.0000   117                      0.0000  3991055         
   3001   170        0.0000    80                      0.0000  4054668         
Elapsed time = 345.75 sec. (305107.16 ticks, tree = 1.67 MB, solutions = 0)
   3045   172    infeasible                            0.0000  4113122         

Performing restart 1

Repeating presolve.
Tried aggregator 1 time.
MIP Presolve modified 14625 coefficients.
Reduced MIP has 1194 rows, 4925 columns, and 53292 nonzeros.
Reduced MIP has 4925 binaries, 0 generals, 0 SOSs, and 0 indicators.
Presolve time = 0.05 sec. (53.12 ticks)
Tried aggregator 1 time.
Reduced MIP has 1194 rows, 4925 columns, and 53292 nonzeros.
Reduced MIP has 4925 binaries, 0 generals, 0 SOSs, and 0 indicators.
Presolve time = 0.04 sec. (33.22 ticks)
Represolve time = 0.28 sec. (208.58 ticks)
   3078     0        0.0000   338                     Cuts: 6  4161270         
   3078     0        0.0000   144                     Cuts: 6  4161437         
   3078     0        0.0000   452                    Cuts: 60  4162630         
   3078     0        0.0000   370                    Fract: 1  4163885         
   3078     0        0.0000   414                 ZeroHalf: 3  4164641         
*  3078+    0                            0.0000        0.0000             0.00%
   3078     0        cutoff              0.0000        0.0000  4164641    0.00%

Clique cuts applied:  5
Zero-half cuts applied:  4
Gomory fractional cuts applied:  1

Root node processing (before b&c):
  Real time             =    7.48 sec. (8414.11 ticks)
Sequential b&c:
  Real time             =  363.21 sec. (323407.95 ticks)
                          ------------
Total (root+branch&cut) =  370.69 sec. (331822.06 ticks)
Version identifier: 22.1.0.0 | 2022-03-09 | 1a383f8ce
CPXPARAM_Threads                                 1
CPXPARAM_MIP_Strategy_VariableSelect             3
CPXPARAM_TimeLimit                               220.88503198000001
Tried aggregator 1 time.
MIP Presolve eliminated 13 rows and 0 columns.
MIP Presolve modified 1 coefficients.
Reduced MIP has 1206 rows, 4975 columns, and 55613 nonzeros.
Reduced MIP has 4975 binaries, 0 generals, 0 SOSs, and 0 indicators.
Presolve time = 0.03 sec. (27.03 ticks)
Probing time = 0.01 sec. (5.45 ticks)
Tried aggregator 1 time.
Detecting symmetries...
Reduced MIP has 1206 rows, 4975 columns, and 55613 nonzeros.
Reduced MIP has 4975 binaries, 0 generals, 0 SOSs, and 0 indicators.
Presolve time = 0.04 sec. (32.99 ticks)
Probing time = 0.01 sec. (5.45 ticks)
Clique table members: 795.
MIP emphasis: balance optimality and feasibility.
MIP search method: dynamic search.
Parallel mode: none, using 1 thread.
Root relaxation solution time = 0.54 sec. (609.25 ticks)

        Nodes                                         Cuts/
   Node  Left     Objective  IInf  Best Integer    Best Bound    ItCnt     Gap

      0     0        0.0000   852                      0.0000     2951         
      0     2        0.0000   125                      0.0000     2951         
Elapsed time = 6.71 sec. (7474.66 ticks, tree = 0.01 MB, solutions = 0)
      1     3        0.0000   628                      0.0000    10529         
      2     4        0.0000   122                      0.0000    11431         
      3     5        0.0000   252                      0.0000    15067         
      4     6        0.0000   111                      0.0000    15845         
      6     8        0.0000    90                      0.0000    18914         
      7     9        0.0000   379                      0.0000    22935         
      8    10        0.0000    82                      0.0000    23172         
      9    11        0.0000   331                      0.0000    26747         
     10    12        0.0000    83                      0.0000    29897         
     11    13        0.0000   363                      0.0000    33514         
Elapsed time = 14.72 sec. (16460.43 ticks, tree = 0.04 MB, solutions = 0)
     13    15        0.0000   537                      0.0000    37926         
     16    18        0.0000   310                      0.0000    39318         
     18    20        0.0000   306                      0.0000    42925         
     20    22        0.0000   472                      0.0000    46437         
     23    25        0.0000   267                      0.0000    48447         
     26    28        0.0000   402                      0.0000    52428         
     29    31        0.0000   208                      0.0000    55591         
     31    33        0.0000   189                      0.0000    57674         
     32    34        0.0000   548                      0.0000    61133         
     35    37        0.0000   180                      0.0000    63930         
Elapsed time = 26.07 sec. (28642.70 ticks, tree = 0.23 MB, solutions = 0)
     36    38        0.0000   311                      0.0000    68769         
     38    40        0.0000   360                      0.0000    71857         
     40    42        0.0000   329                      0.0000    74202         
     43    45        0.0000   243                      0.0000    78775         
     45    47        0.0000   186                      0.0000    82986         
     46    48        0.0000   318                      0.0000    88812         
     48    50        0.0000   387                      0.0000    92268         
     50    52        0.0000   709                      0.0000    96073         
     53    55        0.0000   623                      0.0000   101611         
     54    56        0.0000   344                      0.0000   104936         
Elapsed time = 40.22 sec. (44018.02 ticks, tree = 0.41 MB, solutions = 0)
     57    59        0.0000   297                      0.0000   110694         
     59    61        0.0000   338                      0.0000   120592         
     61    63        0.0000   615                      0.0000   123203         
     63    65        0.0000   306                      0.0000   128036         
     65    67        0.0000   321                      0.0000   132322         
     68    70        0.0000   556                      0.0000   135505         
     71    73        0.0000   591                      0.0000   139143         
     75    77        0.0000   660                      0.0000   140801         
     79    81        0.0000   641                      0.0000   142889         
     84    86        0.0000   589                      0.0000   143986         
Elapsed time = 51.35 sec. (56595.12 ticks, tree = 0.76 MB, solutions = 0)
     88    89        0.0000   589                      0.0000   146234         
     92    92        0.0000   488                      0.0000   150013         
     97    97        0.0000   483                      0.0000   153382         
    102   101        0.0000   478                      0.0000   156021         
    106   104        0.0000   387                      0.0000   160745         
    110   106        0.0000   185                      0.0000   171009         
    114   108        0.0000   239                      0.0000   181066         
    119   111        0.0000   232                      0.0000   188618         
    128   112        0.0000   226                      0.0000   195302         
    132   112        0.0000   387                      0.0000   199998         
Elapsed time = 62.88 sec. (68819.59 ticks, tree = 1.06 MB, solutions = 0)
    134   114        0.0000   538                      0.0000   206015         
    137   117        0.0000   791                      0.0000   207916         
    140   120        0.0000   761                      0.0000   210560         
    144   124        0.0000   754                      0.0000   212279         
    148   128        0.0000   753                      0.0000   213509         
    151   131        0.0000   665                      0.0000   216272         
    155   135        0.0000   577                      0.0000   219162         
    158   138        0.0000   513                      0.0000   223157         
    163   141        0.0000   483                      0.0000   228612         
    167   143        0.0000   356                      0.0000   235029         
Elapsed time = 74.72 sec. (82343.53 ticks, tree = 1.42 MB, solutions = 0)
    171   146        0.0000   297                      0.0000   240158         
    175   148        0.0000   284                      0.0000   248270         
    181   148        0.0000   278                      0.0000   258617         
    188   149        0.0000   218                      0.0000   266304         
    198   149        0.0000   231                      0.0000   273470         
    207   148    infeasible                            0.0000   280540         
    215   150    infeasible                            0.0000   288249         
    224   152        0.0000   796                      0.0000   297370         
    225   153        0.0000   670                      0.0000   302397         
    228   156        0.0000   753                      0.0000   303960         
Elapsed time = 86.32 sec. (94218.31 ticks, tree = 1.56 MB, solutions = 0)
    230   158        0.0000   595                      0.0000   310900         
    231   159        0.0000   601                      0.0000   316235         
    233   161        0.0000   490                      0.0000   320902         
    234   162        0.0000   434                      0.0000   325258         
    235   163        0.0000   428                      0.0000   329217         
    237   165        0.0000   561                      0.0000   332977         
    240   168        0.0000   477                      0.0000   339605         
    241   169        0.0000   407                      0.0000   342934         
    243   171        0.0000   349                      0.0000   349188         
    244   172        0.0000   275                      0.0000   355796         
Elapsed time = 100.35 sec. (109837.91 ticks, tree = 1.70 MB, solutions = 0)
    246   174        0.0000   282                      0.0000   362544         
    247   175        0.0000   307                      0.0000   367091         
    249   177        0.0000   286                      0.0000   370532         
    252   180        0.0000   282                      0.0000   375764         
    255   181    infeasible                            0.0000   383068         
    258   182        0.0000   344                      0.0000   390912         
    260   184        0.0000   230                      0.0000   396597         
    262   184    infeasible                            0.0000   402575         
    265   187        0.0000   169                      0.0000   408828         
    268   190        0.0000   147                      0.0000   412937         
Elapsed time = 111.83 sec. (121787.00 ticks, tree = 1.85 MB, solutions = 0)
    272   190        0.0000   148                      0.0000   420146         
    274   188    infeasible                            0.0000   426778         
    275   189        0.0000   149                      0.0000   432820         
    280   188    infeasible                            0.0000   438349         
    284   190    infeasible                            0.0000   444409         
    288   194        0.0000   120                      0.0000   447450         
    291   193    infeasible                            0.0000   454378         
    296   194    infeasible                            0.0000   461585         
    300   196        0.0000   113                      0.0000   466243         
    316   196    infeasible                            0.0000   489385         
Elapsed time = 126.52 sec. (136447.02 ticks, tree = 1.93 MB, solutions = 0)
    330   198        0.0000    96                      0.0000   509987         
    349   195    infeasible                            0.0000   530251         
    360   198        0.0000   178                      0.0000   548353         
    372   200        0.0000   143                      0.0000   568212         
    388   200    infeasible                            0.0000   587814         
    398   202    infeasible                            0.0000   610013         
    408   204        0.0000   139                      0.0000   627735         
    421   205    infeasible                            0.0000   650240         
    433   207    infeasible                            0.0000   672329         
    447   211        0.0000    98                      0.0000   694292         
Elapsed time = 165.97 sec. (175671.45 ticks, tree = 2.09 MB, solutions = 0)
    461   213        0.0000   128                      0.0000   714406         
    474   212    infeasible                            0.0000   736896         
    491   215    infeasible                            0.0000   756647         
    506   215    infeasible                            0.0000   779240         
    525   224        0.0000   128                      0.0000   795583         
    544   227    infeasible                            0.0000   815712         
    561   227    infeasible                            0.0000   840038         
    578   225    infeasible                            0.0000   861153         
    594   226        0.0000   140                      0.0000   880087         
    609   225    infeasible                            0.0000   900960         
Elapsed time = 206.30 sec. (215720.79 ticks, tree = 2.26 MB, solutions = 0)
    629   225        0.0000    88                      0.0000   922522         
    644   226        0.0000   114                      0.0000   944340         
    660   226    infeasible                            0.0000   966686         

Clique cuts applied:  2
Zero-half cuts applied:  3

Root node processing (before b&c):
  Real time             =    6.68 sec. (7443.94 ticks)
Sequential b&c:
  Real time             =  214.21 sec. (222594.86 ticks)
                          ------------
Total (root+branch&cut) =  220.89 sec. (230038.80 ticks)
Primal:	197
Dual:	200
Status:	Feasible
Time:	600.024
Sequence:
	16
	1
	14
	7
	7
